p edge 100 1980
e 1 5
e 1 8
e 1 11
e 1 14
e 1 18
e 1 21
e 1 22
e 1 24
e 1 25
e 1 28
e 1 34
e 1 35
e 1 36
e 1 42
e 1 43
e 1 44
e 1 46
e 1 50
e 1 52
e 1 57
e 1 59
e 1 62
e 1 63
e 1 64
e 1 66
e 1 69
e 1 72
e 1 76
e 1 78
e 1 80
e 1 84
e 1 92
e 1 94
e 1 96
e 1 97
e 1 99
e 1 100
e 2 4
e 2 14
e 2 15
e 2 17
e 2 20
e 2 21
e 2 24
e 2 28
e 2 29
e 2 30
e 2 32
e 2 38
e 2 39
e 2 41
e 2 50
e 2 53
e 2 56
e 2 59
e 2 63
e 2 64
e 2 67
e 2 70
e 2 73
e 2 74
e 2 75
e 2 80
e 2 81
e 2 84
e 2 93
e 2 95
e 2 98
e 3 4
e 3 5
e 3 7
e 3 9
e 3 10
e 3 12
e 3 17
e 3 22
e 3 23
e 3 24
e 3 27
e 3 30
e 3 31
e 3 32
e 3 33
e 3 35
e 3 40
e 3 41
e 3 42
e 3 43
e 3 44
e 3 46
e 3 52
e 3 53
e 3 54
e 3 55
e 3 56
e 3 58
e 3 61
e 3 62
e 3 64
e 3 65
e 3 67
e 3 71
e 3 72
e 3 74
e 3 77
e 3 78
e 3 79
e 3 80
e 3 88
e 3 90
e 3 91
e 3 92
e 3 93
e 3 96
e 3 97
e 4 5
e 4 6
e 4 9
e 4 16
e 4 18
e 4 20
e 4 24
e 4 25
e 4 27
e 4 28
e 4 33
e 4 34
e 4 36
e 4 38
e 4 39
e 4 41
e 4 44
e 4 47
e 4 49
e 4 50
e 4 51
e 4 52
e 4 53
e 4 55
e 4 56
e 4 62
e 4 67
e 4 68
e 4 70
e 4 71
e 4 76
e 4 81
e 4 87
e 4 88
e 4 89
e 4 90
e 4 99
e 5 6
e 5 7
e 5 8
e 5 11
e 5 12
e 5 18
e 5 22
e 5 29
e 5 34
e 5 35
e 5 38
e 5 39
e 5 42
e 5 44
e 5 48
e 5 49
e 5 52
e 5 54
e 5 55
e 5 56
e 5 58
e 5 64
e 5 65
e 5 66
e 5 67
e 5 69
e 5 70
e 5 71
e 5 72
e 5 73
e 5 74
e 5 78
e 5 81
e 5 82
e 5 83
e 5 84
e 5 85
e 5 92
e 5 94
e 5 96
e 5 97
e 5 98
e 6 9
e 6 17
e 6 21
e 6 22
e 6 27
e 6 28
e 6 34
e 6 35
e 6 36
e 6 37
e 6 38
e 6 39
e 6 41
e 6 43
e 6 44
e 6 45
e 6 47
e 6 49
e 6 52
e 6 59
e 6 60
e 6 63
e 6 64
e 6 65
e 6 69
e 6 74
e 6 79
e 6 80
e 6 81
e 6 86
e 6 87
e 6 88
e 6 90
e 6 94
e 6 98
e 7 15
e 7 16
e 7 17
e 7 18
e 7 19
e 7 22
e 7 23
e 7 24
e 7 25
e 7 28
e 7 30
e 7 41
e 7 43
e 7 44
e 7 46
e 7 50
e 7 52
e 7 54
e 7 58
e 7 59
e 7 62
e 7 66
e 7 69
e 7 71
e 7 72
e 7 78
e 7 83
e 7 84
e 7 89
e 7 94
e 7 99
e 8 10
e 8 14
e 8 15
e 8 16
e 8 18
e 8 22
e 8 23
e 8 28
e 8 30
e 8 32
e 8 34
e 8 36
e 8 38
e 8 46
e 8 48
e 8 49
e 8 56
e 8 58
e 8 60
e 8 62
e 8 63
e 8 65
e 8 66
e 8 68
e 8 71
e 8 73
e 8 77
e 8 81
e 8 85
e 8 88
e 8 93
e 8 94
e 8 99
e 9 12
e 9 16
e 9 19
e 9 22
e 9 23
e 9 27
e 9 29
e 9 30
e 9 33
e 9 34
e 9 35
e 9 36
e 9 37
e 9 38
e 9 39
e 9 43
e 9 46
e 9 58
e 9 59
e 9 60
e 9 66
e 9 71
e 9 74
e 9 76
e 9 79
e 9 80
e 9 81
e 9 82
e 9 85
e 9 87
e 9 88
e 9 89
e 9 90
e 9 91
e 9 92
e 9 95
e 9 96
e 9 98
e 9 99
e 10 12
e 10 13
e 10 15
e 10 17
e 10 18
e 10 20
e 10 21
e 10 22
e 10 23
e 10 24
e 10 28
e 10 30
e 10 31
e 10 33
e 10 34
e 10 37
e 10 38
e 10 39
e 10 42
e 10 43
e 10 46
e 10 48
e 10 49
e 10 50
e 10 51
e 10 52
e 10 54
e 10 58
e 10 59
e 10 61
e 10 62
e 10 65
e 10 74
e 10 80
e 10 81
e 10 90
e 10 92
e 10 97
e 10 100
e 11 12
e 11 16
e 11 17
e 11 22
e 11 24
e 11 25
e 11 26
e 11 30
e 11 32
e 11 33
e 11 35
e 11 37
e 11 38
e 11 39
e 11 40
e 11 45
e 11 46
e 11 47
e 11 50
e 11 51
e 11 52
e 11 53
e 11 54
e 11 55
e 11 56
e 11 57
e 11 60
e 11 61
e 11 63
e 11 66
e 11 69
e 11 72
e 11 73
e 11 74
e 11 75
e 11 76
e 11 79
e 11 81
e 11 83
e 11 84
e 11 86
e 11 88
e 11 92
e 11 93
e 11 96
e 12 13
e 12 17
e 12 20
e 12 22
e 12 25
e 12 28
e 12 29
e 12 32
e 12 40
e 12 41
e 12 42
e 12 46
e 12 47
e 12 48
e 12 57
e 12 58
e 12 59
e 12 60
e 12 62
e 12 63
e 12 64
e 12 65
e 12 66
e 12 68
e 12 69
e 12 72
e 12 76
e 12 79
e 12 80
e 12 87
e 12 91
e 12 92
e 12 93
e 12 96
e 12 97
e 12 99
e 13 14
e 13 15
e 13 17
e 13 21
e 13 26
e 13 27
e 13 34
e 13 37
e 13 40
e 13 43
e 13 46
e 13 48
e 13 51
e 13 55
e 13 56
e 13 57
e 13 59
e 13 60
e 13 68
e 13 70
e 13 73
e 13 74
e 13 75
e 13 76
e 13 85
e 13 87
e 13 91
e 13 93
e 13 96
e 14 15
e 14 16
e 14 21
e 14 23
e 14 24
e 14 25
e 14 28
e 14 30
e 14 34
e 14 35
e 14 37
e 14 39
e 14 43
e 14 44
e 14 48
e 14 51
e 14 53
e 14 54
e 14 55
e 14 57
e 14 58
e 14 69
e 14 71
e 14 73
e 14 74
e 14 76
e 14 77
e 14 83
e 14 85
e 14 87
e 14 91
e 14 92
e 14 93
e 14 94
e 14 96
e 15 16
e 15 19
e 15 20
e 15 32
e 15 33
e 15 34
e 15 36
e 15 38
e 15 40
e 15 42
e 15 46
e 15 47
e 15 50
e 15 53
e 15 54
e 15 55
e 15 58
e 15 60
e 15 61
e 15 63
e 15 64
e 15 65
e 15 69
e 15 70
e 15 71
e 15 73
e 15 74
e 15 75
e 15 78
e 15 79
e 15 81
e 15 83
e 15 84
e 15 89
e 15 90
e 15 93
e 15 96
e 15 99
e 16 19
e 16 21
e 16 23
e 16 29
e 16 34
e 16 37
e 16 42
e 16 44
e 16 45
e 16 46
e 16 48
e 16 51
e 16 53
e 16 57
e 16 58
e 16 59
e 16 61
e 16 64
e 16 70
e 16 72
e 16 73
e 16 77
e 16 80
e 16 81
e 16 82
e 16 83
e 16 84
e 16 86
e 16 87
e 16 89
e 16 90
e 16 91
e 16 92
e 16 95
e 16 97
e 16 98
e 17 18
e 17 22
e 17 23
e 17 27
e 17 29
e 17 35
e 17 39
e 17 40
e 17 41
e 17 43
e 17 44
e 17 45
e 17 48
e 17 50
e 17 51
e 17 52
e 17 54
e 17 55
e 17 62
e 17 64
e 17 72
e 17 77
e 17 79
e 17 80
e 17 82
e 17 83
e 17 84
e 17 85
e 17 86
e 17 87
e 17 89
e 17 90
e 17 93
e 17 94
e 17 96
e 17 97
e 18 19
e 18 33
e 18 46
e 18 47
e 18 48
e 18 49
e 18 54
e 18 56
e 18 57
e 18 58
e 18 60
e 18 61
e 18 62
e 18 64
e 18 66
e 18 73
e 18 74
e 18 75
e 18 77
e 18 83
e 18 90
e 18 91
e 18 92
e 18 98
e 19 22
e 19 24
e 19 25
e 19 26
e 19 30
e 19 33
e 19 38
e 19 42
e 19 43
e 19 44
e 19 46
e 19 47
e 19 48
e 19 50
e 19 52
e 19 54
e 19 55
e 19 59
e 19 60
e 19 69
e 19 70
e 19 71
e 19 74
e 19 76
e 19 78
e 19 80
e 19 81
e 19 83
e 19 85
e 19 87
e 19 89
e 19 94
e 19 97
e 19 99
e 19 100
e 20 25
e 20 32
e 20 35
e 20 37
e 20 38
e 20 41
e 20 42
e 20 44
e 20 45
e 20 46
e 20 47
e 20 50
e 20 51
e 20 52
e 20 55
e 20 56
e 20 57
e 20 58
e 20 62
e 20 64
e 20 65
e 20 67
e 20 69
e 20 70
e 20 71
e 20 74
e 20 77
e 20 79
e 20 83
e 20 84
e 20 85
e 20 89
e 20 92
e 20 95
e 20 98
e 20 100
e 21 24
e 21 25
e 21 28
e 21 29
e 21 31
e 21 33
e 21 34
e 21 35
e 21 36
e 21 38
e 21 42
e 21 43
e 21 45
e 21 48
e 21 51
e 21 52
e 21 53
e 21 59
e 21 60
e 21 61
e 21 62
e 21 71
e 21 74
e 21 77
e 21 78
e 21 79
e 21 86
e 21 91
e 21 95
e 21 97
e 21 100
e 22 24
e 22 25
e 22 27
e 22 30
e 22 34
e 22 37
e 22 38
e 22 39
e 22 40
e 22 41
e 22 44
e 22 45
e 22 46
e 22 48
e 22 50
e 22 52
e 22 59
e 22 61
e 22 62
e 22 63
e 22 66
e 22 72
e 22 73
e 22 75
e 22 77
e 22 79
e 22 80
e 22 84
e 22 90
e 22 91
e 22 94
e 22 95
e 22 99
e 23 24
e 23 26
e 23 27
e 23 36
e 23 38
e 23 39
e 23 52
e 23 53
e 23 54
e 23 56
e 23 57
e 23 62
e 23 63
e 23 68
e 23 70
e 23 73
e 23 77
e 23 79
e 23 80
e 23 84
e 23 85
e 23 86
e 23 90
e 23 91
e 23 92
e 23 94
e 23 95
e 23 97
e 23 99
e 23 100
e 24 27
e 24 28
e 24 31
e 24 32
e 24 33
e 24 39
e 24 45
e 24 47
e 24 48
e 24 51
e 24 52
e 24 53
e 24 56
e 24 57
e 24 62
e 24 64
e 24 66
e 24 67
e 24 72
e 24 79
e 24 91
e 24 94
e 24 97
e 25 29
e 25 30
e 25 33
e 25 36
e 25 37
e 25 38
e 25 39
e 25 42
e 25 44
e 25 46
e 25 47
e 25 50
e 25 55
e 25 56
e 25 58
e 25 61
e 25 66
e 25 68
e 25 69
e 25 70
e 25 73
e 25 77
e 25 79
e 25 83
e 25 89
e 25 90
e 25 92
e 25 93
e 25 95
e 25 96
e 26 27
e 26 29
e 26 31
e 26 33
e 26 36
e 26 38
e 26 42
e 26 44
e 26 45
e 26 49
e 26 50
e 26 55
e 26 56
e 26 57
e 26 59
e 26 64
e 26 65
e 26 66
e 26 67
e 26 68
e 26 70
e 26 72
e 26 74
e 26 75
e 26 76
e 26 79
e 26 81
e 26 84
e 26 89
e 26 90
e 26 91
e 26 92
e 26 94
e 26 95
e 26 100
e 27 29
e 27 33
e 27 35
e 27 39
e 27 41
e 27 42
e 27 44
e 27 45
e 27 46
e 27 48
e 27 51
e 27 52
e 27 54
e 27 55
e 27 60
e 27 64
e 27 71
e 27 74
e 27 78
e 27 81
e 27 82
e 27 86
e 27 87
e 27 88
e 27 89
e 27 93
e 27 94
e 27 95
e 27 98
e 27 100
e 28 29
e 28 30
e 28 31
e 28 33
e 28 35
e 28 36
e 28 40
e 28 42
e 28 44
e 28 45
e 28 51
e 28 54
e 28 55
e 28 56
e 28 63
e 28 66
e 28 68
e 28 70
e 28 71
e 28 74
e 28 75
e 28 78
e 28 79
e 28 83
e 28 84
e 28 87
e 28 88
e 28 90
e 28 91
e 28 94
e 28 98
e 28 99
e 29 34
e 29 37
e 29 38
e 29 39
e 29 41
e 29 45
e 29 48
e 29 49
e 29 50
e 29 51
e 29 52
e 29 54
e 29 55
e 29 56
e 29 58
e 29 64
e 29 67
e 29 70
e 29 71
e 29 73
e 29 75
e 29 76
e 29 77
e 29 78
e 29 81
e 29 84
e 29 86
e 29 89
e 29 90
e 29 92
e 29 93
e 29 96
e 29 97
e 30 31
e 30 35
e 30 36
e 30 42
e 30 44
e 30 48
e 30 49
e 30 50
e 30 51
e 30 52
e 30 53
e 30 54
e 30 55
e 30 63
e 30 66
e 30 72
e 30 83
e 30 85
e 30 88
e 30 93
e 30 95
e 30 100
e 31 38
e 31 39
e 31 40
e 31 41
e 31 43
e 31 44
e 31 47
e 31 49
e 31 50
e 31 53
e 31 55
e 31 65
e 31 66
e 31 69
e 31 72
e 31 74
e 31 76
e 31 77
e 31 78
e 31 81
e 31 86
e 31 87
e 31 90
e 31 91
e 31 100
e 32 33
e 32 38
e 32 44
e 32 45
e 32 48
e 32 49
e 32 51
e 32 52
e 32 54
e 32 62
e 32 64
e 32 65
e 32 66
e 32 68
e 32 72
e 32 73
e 32 74
e 32 75
e 32 76
e 32 77
e 32 79
e 32 83
e 32 86
e 32 90
e 32 94
e 32 96
e 32 97
e 32 99
e 33 34
e 33 37
e 33 39
e 33 45
e 33 46
e 33 54
e 33 55
e 33 57
e 33 58
e 33 61
e 33 63
e 33 64
e 33 67
e 33 77
e 33 78
e 33 79
e 33 80
e 33 82
e 33 84
e 33 88
e 33 89
e 33 96
e 33 99
e 33 100
e 34 37
e 34 40
e 34 41
e 34 43
e 34 47
e 34 51
e 34 53
e 34 58
e 34 61
e 34 62
e 34 64
e 34 71
e 34 72
e 34 73
e 34 76
e 34 77
e 34 80
e 34 87
e 34 89
e 34 91
e 34 96
e 35 36
e 35 38
e 35 39
e 35 42
e 35 43
e 35 44
e 35 45
e 35 46
e 35 48
e 35 51
e 35 53
e 35 54
e 35 57
e 35 61
e 35 65
e 35 71
e 35 72
e 35 73
e 35 80
e 35 82
e 35 85
e 35 89
e 35 95
e 35 97
e 35 98
e 35 99
e 35 100
e 36 37
e 36 45
e 36 49
e 36 52
e 36 54
e 36 55
e 36 57
e 36 65
e 36 68
e 36 70
e 36 76
e 36 83
e 36 84
e 36 86
e 36 87
e 36 91
e 36 92
e 36 95
e 36 96
e 37 38
e 37 41
e 37 42
e 37 45
e 37 48
e 37 49
e 37 51
e 37 60
e 37 61
e 37 63
e 37 66
e 37 67
e 37 68
e 37 69
e 37 70
e 37 74
e 37 77
e 37 79
e 37 80
e 37 85
e 37 88
e 37 91
e 37 92
e 37 94
e 37 96
e 37 97
e 37 99
e 38 41
e 38 42
e 38 43
e 38 45
e 38 49
e 38 51
e 38 52
e 38 53
e 38 56
e 38 58
e 38 59
e 38 61
e 38 63
e 38 65
e 38 67
e 38 69
e 38 71
e 38 75
e 38 77
e 38 80
e 38 82
e 38 83
e 38 84
e 38 88
e 38 95
e 39 41
e 39 42
e 39 43
e 39 45
e 39 50
e 39 51
e 39 52
e 39 59
e 39 61
e 39 64
e 39 65
e 39 69
e 39 73
e 39 74
e 39 76
e 39 81
e 39 84
e 39 90
e 39 96
e 39 100
e 40 45
e 40 47
e 40 49
e 40 54
e 40 57
e 40 59
e 40 63
e 40 64
e 40 66
e 40 67
e 40 68
e 40 69
e 40 70
e 40 71
e 40 73
e 40 74
e 40 81
e 40 85
e 40 86
e 40 89
e 40 94
e 41 43
e 41 44
e 41 45
e 41 48
e 41 50
e 41 52
e 41 65
e 41 70
e 41 71
e 41 72
e 41 73
e 41 74
e 41 76
e 41 78
e 41 79
e 41 82
e 41 85
e 41 88
e 41 89
e 41 90
e 41 92
e 41 93
e 41 96
e 41 97
e 41 99
e 42 44
e 42 45
e 42 50
e 42 51
e 42 54
e 42 57
e 42 58
e 42 59
e 42 60
e 42 62
e 42 63
e 42 67
e 42 68
e 42 69
e 42 71
e 42 74
e 42 78
e 42 79
e 42 80
e 42 83
e 42 84
e 42 88
e 42 89
e 42 91
e 42 95
e 42 99
e 43 44
e 43 52
e 43 54
e 43 56
e 43 58
e 43 60
e 43 61
e 43 64
e 43 66
e 43 69
e 43 73
e 43 76
e 43 83
e 43 85
e 43 86
e 43 92
e 43 93
e 43 95
e 43 98
e 43 100
e 44 45
e 44 50
e 44 52
e 44 53
e 44 55
e 44 56
e 44 57
e 44 60
e 44 63
e 44 64
e 44 65
e 44 66
e 44 67
e 44 68
e 44 71
e 44 72
e 44 76
e 44 78
e 44 79
e 44 80
e 44 85
e 44 86
e 44 87
e 44 88
e 44 89
e 44 90
e 44 91
e 44 94
e 44 95
e 44 100
e 45 48
e 45 50
e 45 51
e 45 52
e 45 54
e 45 59
e 45 60
e 45 64
e 45 66
e 45 69
e 45 70
e 45 71
e 45 74
e 45 77
e 45 78
e 45 79
e 45 80
e 45 81
e 45 82
e 45 84
e 45 89
e 45 92
e 45 95
e 45 96
e 45 97
e 46 49
e 46 52
e 46 54
e 46 56
e 46 57
e 46 58
e 46 62
e 46 63
e 46 66
e 46 69
e 46 70
e 46 74
e 46 78
e 46 79
e 46 82
e 46 83
e 46 86
e 46 87
e 46 89
e 46 91
e 46 95
e 46 96
e 46 100
e 47 49
e 47 53
e 47 55
e 47 58
e 47 60
e 47 63
e 47 66
e 47 70
e 47 71
e 47 72
e 47 73
e 47 74
e 47 75
e 47 79
e 47 81
e 47 87
e 47 90
e 47 92
e 47 95
e 47 97
e 47 98
e 48 50
e 48 51
e 48 53
e 48 59
e 48 61
e 48 63
e 48 65
e 48 66
e 48 67
e 48 69
e 48 72
e 48 78
e 48 79
e 48 80
e 48 81
e 48 84
e 48 86
e 48 88
e 48 89
e 48 94
e 48 96
e 48 97
e 48 99
e 48 100
e 49 51
e 49 52
e 49 53
e 49 54
e 49 55
e 49 56
e 49 60
e 49 61
e 49 63
e 49 67
e 49 68
e 49 71
e 49 74
e 49 75
e 49 79
e 49 80
e 49 81
e 49 84
e 49 85
e 49 86
e 49 89
e 49 92
e 50 51
e 50 56
e 50 58
e 50 61
e 50 62
e 50 64
e 50 65
e 50 67
e 50 68
e 50 73
e 50 74
e 50 78
e 50 79
e 50 81
e 50 85
e 50 86
e 50 87
e 50 91
e 50 95
e 50 98
e 50 100
e 51 54
e 51 57
e 51 62
e 51 66
e 51 67
e 51 72
e 51 74
e 51 76
e 51 79
e 51 81
e 51 82
e 51 84
e 51 86
e 51 88
e 51 92
e 51 93
e 51 98
e 52 53
e 52 54
e 52 56
e 52 57
e 52 60
e 52 63
e 52 64
e 52 69
e 52 75
e 52 77
e 52 79
e 52 86
e 52 91
e 52 92
e 52 94
e 53 57
e 53 58
e 53 59
e 53 63
e 53 67
e 53 68
e 53 79
e 53 82
e 53 83
e 53 85
e 53 86
e 53 89
e 53 91
e 53 93
e 53 94
e 53 95
e 53 96
e 53 99
e 53 100
e 54 55
e 54 57
e 54 58
e 54 60
e 54 63
e 54 64
e 54 66
e 54 69
e 54 72
e 54 77
e 54 79
e 54 80
e 54 84
e 54 86
e 54 88
e 54 90
e 54 92
e 54 94
e 54 96
e 55 61
e 55 66
e 55 67
e 55 68
e 55 69
e 55 71
e 55 72
e 55 73
e 55 75
e 55 76
e 55 78
e 55 79
e 55 80
e 55 81
e 55 86
e 55 87
e 55 90
e 55 93
e 55 97
e 55 100
e 56 59
e 56 60
e 56 62
e 56 64
e 56 65
e 56 76
e 56 77
e 56 78
e 56 83
e 56 90
e 56 92
e 56 93
e 56 95
e 56 96
e 56 97
e 57 61
e 57 64
e 57 65
e 57 66
e 57 67
e 57 69
e 57 70
e 57 71
e 57 72
e 57 75
e 57 79
e 57 81
e 57 84
e 57 85
e 57 88
e 57 95
e 57 97
e 57 98
e 57 99
e 57 100
e 58 61
e 58 63
e 58 68
e 58 76
e 58 81
e 58 84
e 58 86
e 58 87
e 58 90
e 58 92
e 58 97
e 58 99
e 58 100
e 59 60
e 59 65
e 59 66
e 59 68
e 59 69
e 59 74
e 59 75
e 59 79
e 59 81
e 59 84
e 59 85
e 59 86
e 59 92
e 59 94
e 59 99
e 60 61
e 60 62
e 60 65
e 60 66
e 60 67
e 60 71
e 60 74
e 60 77
e 60 78
e 60 82
e 60 84
e 60 86
e 60 97
e 61 63
e 61 65
e 61 66
e 61 67
e 61 68
e 61 73
e 61 74
e 61 76
e 61 78
e 61 91
e 61 93
e 61 94
e 61 96
e 62 64
e 62 66
e 62 67
e 62 70
e 62 74
e 62 76
e 62 77
e 62 79
e 62 83
e 62 84
e 62 85
e 62 88
e 62 89
e 62 91
e 62 92
e 62 93
e 62 95
e 62 96
e 62 97
e 63 64
e 63 65
e 63 72
e 63 75
e 63 78
e 63 79
e 63 80
e 63 82
e 63 85
e 63 89
e 63 91
e 63 92
e 63 96
e 63 98
e 63 100
e 64 65
e 64 67
e 64 68
e 64 69
e 64 71
e 64 72
e 64 74
e 64 75
e 64 86
e 64 89
e 64 90
e 64 91
e 64 94
e 64 95
e 65 69
e 65 70
e 65 74
e 65 75
e 65 77
e 65 79
e 65 81
e 65 82
e 65 83
e 65 85
e 65 87
e 65 89
e 65 90
e 65 92
e 65 93
e 65 95
e 65 98
e 66 67
e 66 69
e 66 71
e 66 74
e 66 75
e 66 77
e 66 83
e 66 85
e 66 92
e 66 96
e 67 68
e 67 73
e 67 75
e 67 77
e 67 81
e 67 85
e 67 88
e 67 89
e 67 90
e 67 91
e 67 92
e 67 93
e 67 94
e 67 96
e 68 70
e 68 73
e 68 74
e 68 77
e 68 79
e 68 80
e 68 84
e 68 85
e 68 86
e 68 88
e 68 90
e 68 93
e 68 94
e 68 96
e 68 100
e 69 76
e 69 80
e 69 82
e 69 85
e 69 86
e 69 88
e 69 90
e 69 93
e 69 94
e 69 97
e 69 98
e 69 99
e 69 100
e 70 72
e 70 75
e 70 83
e 70 84
e 70 86
e 70 87
e 70 89
e 70 94
e 70 97
e 70 99
e 70 100
e 71 72
e 71 75
e 71 76
e 71 78
e 71 79
e 71 80
e 71 82
e 71 83
e 71 84
e 71 85
e 71 86
e 71 90
e 71 97
e 71 98
e 71 99
e 71 100
e 72 81
e 72 82
e 72 85
e 72 86
e 72 89
e 72 95
e 72 96
e 72 98
e 73 74
e 73 75
e 73 80
e 73 83
e 73 86
e 73 87
e 73 90
e 73 91
e 73 94
e 73 97
e 73 98
e 73 99
e 73 100
e 74 76
e 74 77
e 74 78
e 74 80
e 74 82
e 74 86
e 74 89
e 74 90
e 74 91
e 74 93
e 74 95
e 74 97
e 74 98
e 74 100
e 75 77
e 75 81
e 75 82
e 75 92
e 75 99
e 75 100
e 76 80
e 76 84
e 76 87
e 76 88
e 76 89
e 76 90
e 76 93
e 76 94
e 76 95
e 76 96
e 76 99
e 76 100
e 77 82
e 77 85
e 77 89
e 77 91
e 77 95
e 77 100
e 78 81
e 78 84
e 78 85
e 78 86
e 78 88
e 78 95
e 78 98
e 78 99
e 79 81
e 79 83
e 79 84
e 79 85
e 79 88
e 79 90
e 79 94
e 79 97
e 79 98
e 79 99
e 79 100
e 80 82
e 80 83
e 80 85
e 80 91
e 80 93
e 80 96
e 80 98
e 80 99
e 80 100
e 81 87
e 81 90
e 81 91
e 81 94
e 81 95
e 81 97
e 82 83
e 82 85
e 82 88
e 82 90
e 82 92
e 82 93
e 82 96
e 82 97
e 82 99
e 83 84
e 83 90
e 83 94
e 84 87
e 84 89
e 84 90
e 84 95
e 84 96
e 84 97
e 84 98
e 84 99
e 84 100
e 85 87
e 85 88
e 85 92
e 85 96
e 85 98
e 85 99
e 86 88
e 86 92
e 86 95
e 86 99
e 87 97
e 87 100
e 88 89
e 88 92
e 88 93
e 88 94
e 88 96
e 88 97
e 88 99
e 88 100
e 89 91
e 89 94
e 89 96
e 89 100
e 90 93
e 90 94
e 90 95
e 90 100
e 91 93
e 91 94
e 91 95
e 91 96
e 91 100
e 92 96
e 92 97
e 93 94
e 93 96
e 93 98
e 94 95
e 94 97
e 94 98
e 95 96
e 95 97
e 95 99
e 96 97
e 96 98
e 96 99
e 97 99
e 98 99
